INFLATION = 0.02;
RENDEMENT = 0.08;
INFLATION_IMPOT = 0.027;
INFLATION_CELI = 0.027;
PLAFOND_CELI_NOW = 6859;
PLAFOND_REER_NOW = 30780;
PLAFOND_RAP_NOW = 60000;
PLAFOND_SALAIRE_RQAP_NOW = 94000;
PLAFOND_SALAIRE_AE_NOW = 65700;
PLAFOND_SALAIRE_RRQ_NOW = 68500;
RATE_RQAP_NOW = 0.00494;
RATE_AE_NOW = 0.0164;
RATE_RRQ_LOW_NOW = 0.054;
RATE_RRQ_HIGH_NOW = 0.04;
N_PALIERS = 10;
PALIERS_IMPOTS = [
0,
15705,
18056,
51780,
55867,
103545,
111733,
126000,
173205,
246752
];
PALIERS_IMPOTS_RATES = [
0,
0.1253,
0.2653,
0.3153,
0.3612,
0.4112,
0.4571,
0.4746,
0.4997,
0.5331
];
SHARE_PRICE_THEORICAL = 140;
BIG = 10000000;
PENNY = 0.01;